NAME : rat99.tsp
COMMENT : Optimal tour for rat99.tsp
TYPE : TOUR
DIMENSION : 99
Total Length: 1324.8264973907726
TOUR_SECTION
1
2
11
12
3
4
14
5
6
7
8
9
18
17
16
15
25
26
27
35
36
44
34
43
42
45
54
63
62
61
70
71
72
81
80
79
89
90
99
98
97
96
87
88
77
78
69
68
67
75
76
84
85
86
95
94
93
92
91
83
82
73
74
66
65
64
55
46
47
56
57
58
59
60
53
52
51
49
50
41
40
39
48
38
29
37
28
30
31
32
33
24
23
13
22
21
19
20
10
-1
EOF
